Starting solution of the Linear programming relaxation problem using Primal Simplex

Coin0506I Presolve 121306 (-121235) rows, 2485 (0) columns and 247440 (-242470) elements
Clp0030I 28 infeas 47.015621, obj 644.71675 - mu 0.050759557, its 105, 92 interior
Clp0030I 39 infeas 0.31294914, obj 1306.7227 - mu 0.0018794197, its 105, 219 interior
Clp0030I 49 infeas 0.047102289, obj 1308.2427 - mu 2.3193432e-05, its 105, 265 interior
Clp0030I 59 infeas 0.00039674051, obj 1308.9485 - mu 8.5875832e-07, its 105, 448 interior
Clp1000I sum of infeasibilities 5.69999e-05 - average 4.69885e-10, 2037 fixed columns
Coin0506I Presolve 2958 (-118348) rows, 448 (-2037) columns and 6670 (-240770) elements
Clp0006I 0  Obj 1308.9543 Primal inf 8.4972539e-06 (19) Dual inf 2.25e+10 (440)
Clp0029I End of values pass after 448 iterations
Clp0014I Perturbing problem by 0.001% of 1 - largest nonzero change 2.9943246e-05 ( 0.0014971623%) - largest zero change 2.9576128e-05
Clp0000I Optimal - objective value 1302.0042
Clp0000I Optimal - objective value 1302.0042
Coin0511I After Postsolve, objective 1302.0042, infeasibilities - dual 0 (0), primal 0 (0)
Clp0006I 0  Obj 1302.0042
Clp0000I Optimal - objective value 1302.0042
Clp0000I Optimal - objective value 1302.0042
Clp0000I Optimal - objective value 1302.0042
Coin0511I After Postsolve, objective 1302.0042, infeasibilities - dual 0 (0), primal 0 (0)
Clp0032I Optimal objective 1302.004167 - 0 iterations time 3.352, Presolve 0.22, Idiot 3.10

Starting MIP optimization
Cbc0045I MIPStart provided solution with cost 1480.62
Cbc0012I Integer solution of 1480.6171 found by Reduced search after 0 iterations and 0 nodes (0.75 seconds)
Cbc0013I At root node, 0 cuts changed objective from 1302.0042 to 1302.0042 in 1 passes
Cbc0014I Cut generator 0 (LazyConstraints) - 0 row cuts average 0.0 elements, 0 column cuts (0 active)  in 0.045 seconds - new frequency is 1
Cbc0014I Cut generator 1 (Probing) - 0 row cuts average 0.0 elements, 0 column cuts (0 active)  in 0.000 seconds - new frequency is -100
Cbc0014I Cut generator 2 (Gomory) - 0 row cuts average 0.0 elements, 0 column cuts (0 active)  in 0.000 seconds - new frequency is -100
Cbc0014I Cut generator 3 (Knapsack) - 0 row cuts average 0.0 elements, 0 column cuts (0 active)  in 0.000 seconds - new frequency is -100
Cbc0014I Cut generator 4 (MixedIntegerRounding2) - 0 row cuts average 0.0 elements, 0 column cuts (0 active)  in 0.000 seconds - new frequency is -100
Cbc0014I Cut generator 5 (FlowCover) - 0 row cuts average 0.0 elements, 0 column cuts (0 active)  in 0.000 seconds - new frequency is -100
Cbc0014I Cut generator 6 (TwoMirCuts) - 0 row cuts average 0.0 elements, 0 column cuts (0 active)  in 0.000 seconds - new frequency is -100
Cbc0014I Cut generator 7 (ZeroHalf) - 0 row cuts average 0.0 elements, 0 column cuts (0 active)  in 0.000 seconds - new frequency is -100
Cbc0010I After 2 nodes, 3 on tree, 1480.6171 best solution, best possible 1302.0042 (3.02 seconds)
Cbc0010I After 3 nodes, 4 on tree, 1480.6171 best solution, best possible 1302.0042 (3.74 seconds)
Cbc0010I After 5 nodes, 6 on tree, 1480.6171 best solution, best possible 1302.0042 (4.93 seconds)
Cbc0010I After 7 nodes, 8 on tree, 1480.6171 best solution, best possible 1302.0042 (6.12 seconds)
Cbc0010I After 9 nodes, 10 on tree, 1480.6171 best solution, best possible 1302.0042 (7.25 seconds)
Cbc0010I After 11 nodes, 12 on tree, 1480.6171 best solution, best possible 1302.0042 (8.44 seconds)
Cbc0010I After 13 nodes, 13 on tree, 1480.6171 best solution, best possible 1302.0042 (9.27 seconds)
Cbc0010I After 15 nodes, 15 on tree, 1480.6171 best solution, best possible 1302.0042 (10.35 seconds)
Cbc0010I After 17 nodes, 16 on tree, 1480.6171 best solution, best possible 1302.0042 (11.16 seconds)
Cbc0010I After 21 nodes, 20 on tree, 1480.6171 best solution, best possible 1302.0042 (12.02 seconds)
Cbc0010I After 25 nodes, 22 on tree, 1480.6171 best solution, best possible 1302.0042 (12.78 seconds)
Cbc0010I After 29 nodes, 24 on tree, 1480.6171 best solution, best possible 1302.0042 (13.64 seconds)
Cbc0010I After 36 nodes, 23 on tree, 1480.6171 best solution, best possible 1302.0042 (14.45 seconds)
Cbc0010I After 39 nodes, 22 on tree, 1480.6171 best solution, best possible 1302.0042 (15.33 seconds)
Cbc0010I After 44 nodes, 24 on tree, 1480.6171 best solution, best possible 1302.0042 (16.03 seconds)
Cbc0010I After 51 nodes, 26 on tree, 1480.6171 best solution, best possible 1302.0042 (16.88 seconds)
Cbc0010I After 59 nodes, 29 on tree, 1480.6171 best solution, best possible 1302.0042 (17.73 seconds)
Cbc0010I After 64 nodes, 31 on tree, 1480.6171 best solution, best possible 1302.0042 (18.48 seconds)
Cbc0010I After 70 nodes, 35 on tree, 1480.6171 best solution, best possible 1302.0042 (19.27 seconds)
Cbc0004I Integer solution of 1472.2825 found after 6172 iterations and 73 nodes (19.71 seconds)
Cbc0010I After 75 nodes, 32 on tree, 1472.2825 best solution, best possible 1302.0042 (20.10 seconds)
Cbc0010I After 78 nodes, 32 on tree, 1472.2825 best solution, best possible 1302.0042 (20.99 seconds)
Cbc0010I After 82 nodes, 32 on tree, 1472.2825 best solution, best possible 1302.0042 (21.72 seconds)
Cbc0010I After 90 nodes, 36 on tree, 1472.2825 best solution, best possible 1302.0042 (22.64 seconds)
Cbc0004I Integer solution of 1462.4711 found after 9189 iterations and 92 nodes (23.29 seconds)
Cbc0010I After 93 nodes, 34 on tree, 1462.4711 best solution, best possible 1302.0042 (23.43 seconds)
Cbc0004I Integer solution of 1462.425 found after 9381 iterations and 94 nodes (23.85 seconds)
Cbc0010I After 96 nodes, 34 on tree, 1462.425 best solution, best possible 1302.0042 (24.15 seconds)
Cbc0010I After 99 nodes, 35 on tree, 1462.425 best solution, best possible 1302.0042 (25.12 seconds)
Cbc0010I After 102 nodes, 36 on tree, 1462.425 best solution, best possible 1302.0042 (26.07 seconds)
Cbc0010I After 110 nodes, 35 on tree, 1462.425 best solution, best possible 1302.0042 (26.78 seconds)
Cbc0010I After 117 nodes, 33 on tree, 1462.425 best solution, best possible 1302.0042 (27.61 seconds)
Cbc0010I After 122 nodes, 32 on tree, 1462.425 best solution, best possible 1302.0042 (28.46 seconds)
Cbc0010I After 126 nodes, 35 on tree, 1462.425 best solution, best possible 1302.0042 (29.37 seconds)
Cbc0010I After 129 nodes, 37 on tree, 1462.425 best solution, best possible 1302.0042 (30.08 seconds)
Cbc0010I After 132 nodes, 38 on tree, 1462.425 best solution, best possible 1302.0042 (30.84 seconds)
Cbc0010I After 136 nodes, 40 on tree, 1462.425 best solution, best possible 1302.0042 (31.58 seconds)
Cbc0010I After 140 nodes, 42 on tree, 1462.425 best solution, best possible 1302.0042 (32.29 seconds)
Cbc0010I After 144 nodes, 44 on tree, 1462.425 best solution, best possible 1302.0042 (33.01 seconds)
Cbc0010I After 149 nodes, 47 on tree, 1462.425 best solution, best possible 1302.0042 (33.75 seconds)
Cbc0010I After 156 nodes, 51 on tree, 1462.425 best solution, best possible 1302.0042 (34.49 seconds)
Cbc0010I After 165 nodes, 53 on tree, 1462.425 best solution, best possible 1302.0042 (35.31 seconds)
Cbc0010I After 176 nodes, 55 on tree, 1462.425 best solution, best possible 1302.0042 (36.11 seconds)
Cbc0010I After 183 nodes, 59 on tree, 1462.425 best solution, best possible 1302.0042 (36.84 seconds)
Cbc0010I After 192 nodes, 62 on tree, 1462.425 best solution, best possible 1302.0042 (37.59 seconds)
Cbc0010I After 202 nodes, 64 on tree, 1462.425 best solution, best possible 1302.0042 (38.30 seconds)
Cbc0010I After 215 nodes, 63 on tree, 1462.425 best solution, best possible 1302.0042 (39.06 seconds)
Cbc0010I After 221 nodes, 66 on tree, 1462.425 best solution, best possible 1302.0042 (39.77 seconds)
Cbc0010I After 227 nodes, 70 on tree, 1462.425 best solution, best possible 1302.0042 (40.51 seconds)
Cbc0010I After 235 nodes, 75 on tree, 1462.425 best solution, best possible 1302.0042 (41.24 seconds)
Cbc0010I After 242 nodes, 77 on tree, 1462.425 best solution, best possible 1302.0042 (42.08 seconds)
Cbc0010I After 249 nodes, 78 on tree, 1462.425 best solution, best possible 1302.0042 (42.80 seconds)
Cbc0010I After 261 nodes, 74 on tree, 1462.425 best solution, best possible 1302.0042 (43.58 seconds)
Cbc0010I After 268 nodes, 74 on tree, 1462.425 best solution, best possible 1302.0042 (44.40 seconds)
Cbc0010I After 274 nodes, 74 on tree, 1462.425 best solution, best possible 1302.0042 (45.18 seconds)
Cbc0010I After 279 nodes, 78 on tree, 1462.425 best solution, best possible 1302.0042 (46.15 seconds)
Cbc0010I After 286 nodes, 80 on tree, 1462.425 best solution, best possible 1302.0042 (46.92 seconds)
Cbc0010I After 292 nodes, 81 on tree, 1462.425 best solution, best possible 1302.0042 (47.81 seconds)
Cbc0010I After 295 nodes, 80 on tree, 1462.425 best solution, best possible 1302.0042 (48.56 seconds)
Cbc0010I After 300 nodes, 80 on tree, 1462.425 best solution, best possible 1302.0042 (49.27 seconds)
Cbc0010I After 304 nodes, 81 on tree, 1462.425 best solution, best possible 1302.0042 (49.98 seconds)
Cbc0010I After 312 nodes, 78 on tree, 1462.425 best solution, best possible 1302.0042 (50.71 seconds)
Cbc0010I After 320 nodes, 77 on tree, 1462.425 best solution, best possible 1302.0042 (51.42 seconds)
Cbc0010I After 324 nodes, 80 on tree, 1462.425 best solution, best possible 1302.0042 (52.41 seconds)
Cbc0010I After 332 nodes, 79 on tree, 1462.425 best solution, best possible 1302.0042 (53.19 seconds)
Cbc0010I After 339 nodes, 79 on tree, 1462.425 best solution, best possible 1302.0042 (54.01 seconds)
Cbc0010I After 343 nodes, 81 on tree, 1462.425 best solution, best possible 1302.0042 (54.80 seconds)
Cbc0004I Integer solution of 1460.8009 found after 40654 iterations and 345 nodes (55.21 seconds)
Cbc0010I After 347 nodes, 81 on tree, 1460.8009 best solution, best possible 1302.0042 (55.69 seconds)
Cbc0010I After 354 nodes, 80 on tree, 1460.8009 best solution, best possible 1302.0042 (56.48 seconds)
Cbc0010I After 360 nodes, 83 on tree, 1460.8009 best solution, best possible 1302.0042 (57.19 seconds)
Cbc0010I After 367 nodes, 84 on tree, 1460.8009 best solution, best possible 1302.0042 (58.08 seconds)
Cbc0010I After 373 nodes, 85 on tree, 1460.8009 best solution, best possible 1302.0042 (58.79 seconds)
Cbc0010I After 378 nodes, 85 on tree, 1460.8009 best solution, best possible 1302.0042 (59.73 seconds)
Cbc0004I Integer solution of 1421.1216 found after 44914 iterations and 381 nodes (60.22 seconds)
Cbc0010I After 384 nodes, 23 on tree, 1421.1216 best solution, best possible 1302.0042 (60.54 seconds)
Cbc0010I After 390 nodes, 21 on tree, 1421.1216 best solution, best possible 1302.0042 (61.53 seconds)
Cbc0010I After 394 nodes, 25 on tree, 1421.1216 best solution, best possible 1302.0042 (62.31 seconds)
Cbc0010I After 402 nodes, 24 on tree, 1421.1216 best solution, best possible 1302.0042 (63.12 seconds)
Cbc0010I After 406 nodes, 24 on tree, 1421.1216 best solution, best possible 1302.0042 (63.90 seconds)
Cbc0010I After 409 nodes, 25 on tree, 1421.1216 best solution, best possible 1302.0042 (64.63 seconds)
Cbc0010I After 412 nodes, 27 on tree, 1421.1216 best solution, best possible 1302.0042 (65.39 seconds)
Cbc0010I After 417 nodes, 29 on tree, 1421.1216 best solution, best possible 1302.0042 (66.32 seconds)
Cbc0010I After 424 nodes, 30 on tree, 1421.1216 best solution, best possible 1302.0042 (67.14 seconds)
Cbc0010I After 433 nodes, 28 on tree, 1421.1216 best solution, best possible 1302.0042 (68.01 seconds)
Cbc0010I After 436 nodes, 30 on tree, 1421.1216 best solution, best possible 1302.0042 (68.74 seconds)
Cbc0010I After 442 nodes, 35 on tree, 1421.1216 best solution, best possible 1302.0042 (69.44 seconds)
Cbc0010I After 452 nodes, 34 on tree, 1421.1216 best solution, best possible 1302.0042 (70.27 seconds)
Cbc0010I After 465 nodes, 31 on tree, 1421.1216 best solution, best possible 1302.0042 (71.04 seconds)
Cbc0010I After 468 nodes, 32 on tree, 1421.1216 best solution, best possible 1302.0042 (71.80 seconds)
Cbc0010I After 474 nodes, 35 on tree, 1421.1216 best solution, best possible 1302.0042 (72.59 seconds)
Cbc0004I Integer solution of 1418.9307 found after 52673 iterations and 477 nodes (73.11 seconds)
Cbc0010I After 479 nodes, 31 on tree, 1418.9307 best solution, best possible 1302.0042 (73.35 seconds)
Cbc0010I After 484 nodes, 32 on tree, 1418.9307 best solution, best possible 1302.0042 (74.11 seconds)
Cbc0010I After 492 nodes, 35 on tree, 1418.9307 best solution, best possible 1302.0042 (74.83 seconds)
Cbc0010I After 501 nodes, 32 on tree, 1418.9307 best solution, best possible 1302.0042 (75.55 seconds)
Cbc0010I After 513 nodes, 30 on tree, 1418.9307 best solution, best possible 1302.0042 (76.39 seconds)
Cbc0010I After 520 nodes, 29 on tree, 1418.9307 best solution, best possible 1302.0042 (77.32 seconds)
Cbc0010I After 523 nodes, 31 on tree, 1418.9307 best solution, best possible 1302.0042 (78.05 seconds)
Cbc0010I After 532 nodes, 29 on tree, 1418.9307 best solution, best possible 1302.0042 (78.77 seconds)
Cbc0010I After 543 nodes, 29 on tree, 1418.9307 best solution, best possible 1302.0042 (79.49 seconds)
Cbc0010I After 556 nodes, 24 on tree, 1418.9307 best solution, best possible 1302.0042 (80.25 seconds)
Cbc0010I After 563 nodes, 23 on tree, 1418.9307 best solution, best possible 1302.0042 (81.03 seconds)
Cbc0010I After 569 nodes, 24 on tree, 1418.9307 best solution, best possible 1302.0042 (81.73 seconds)
Cbc0010I After 575 nodes, 26 on tree, 1418.9307 best solution, best possible 1302.0042 (82.51 seconds)
Cbc0010I After 583 nodes, 22 on tree, 1418.9307 best solution, best possible 1302.0042 (83.30 seconds)
Cbc0010I After 588 nodes, 22 on tree, 1418.9307 best solution, best possible 1302.0042 (84.05 seconds)
Cbc0010I After 601 nodes, 19 on tree, 1418.9307 best solution, best possible 1302.0042 (84.82 seconds)
Cbc0010I After 609 nodes, 22 on tree, 1418.9307 best solution, best possible 1302.0042 (85.53 seconds)
Cbc0004I Integer solution of 1417.9971 found after 63448 iterations and 616 nodes (86.19 seconds)
Cbc0010I After 618 nodes, 19 on tree, 1417.9971 best solution, best possible 1302.0042 (86.30 seconds)
Cbc0010I After 622 nodes, 19 on tree, 1417.9971 best solution, best possible 1302.0042 (87.05 seconds)
Cbc0010I After 636 nodes, 13 on tree, 1417.9971 best solution, best possible 1302.0042 (87.77 seconds)
Cbc0010I After 643 nodes, 11 on tree, 1417.9971 best solution, best possible 1302.0042 (88.47 seconds)
Cbc0010I After 650 nodes, 11 on tree, 1417.9971 best solution, best possible 1302.0042 (89.19 seconds)
Cbc0010I After 667 nodes, 9 on tree, 1417.9971 best solution, best possible 1302.0042 (89.92 seconds)
Cbc0010I After 675 nodes, 9 on tree, 1417.9971 best solution, best possible 1302.0042 (90.71 seconds)
Cbc0010I After 687 nodes, 5 on tree, 1417.9971 best solution, best possible 1302.0042 (91.69 seconds)
Cbc0010I After 692 nodes, 7 on tree, 1417.9971 best solution, best possible 1302.0042 (92.62 seconds)
Cbc0010I After 701 nodes, 6 on tree, 1417.9971 best solution, best possible 1302.0042 (93.38 seconds)
Cbc0010I After 708 nodes, 8 on tree, 1417.9971 best solution, best possible 1302.0042 (94.15 seconds)
Cbc0010I After 716 nodes, 7 on tree, 1417.9971 best solution, best possible 1302.0042 (95.23 seconds)
Cbc0010I After 726 nodes, 4 on tree, 1417.9971 best solution, best possible 1302.0042 (96.05 seconds)
Cbc0010I After 731 nodes, 8 on tree, 1417.9971 best solution, best possible 1302.0042 (96.84 seconds)
Cbc0010I After 736 nodes, 11 on tree, 1417.9971 best solution, best possible 1302.0042 (97.66 seconds)
Cbc0010I After 742 nodes, 12 on tree, 1417.9971 best solution, best possible 1302.0042 (98.38 seconds)
Cbc0010I After 751 nodes, 9 on tree, 1417.9971 best solution, best possible 1302.0042 (99.13 seconds)
Cbc0010I After 756 nodes, 10 on tree, 1417.9971 best solution, best possible 1302.0042 (100.04 seconds)
Cbc0010I After 763 nodes, 11 on tree, 1417.9971 best solution, best possible 1302.0042 (100.79 seconds)
Cbc0010I After 774 nodes, 10 on tree, 1417.9971 best solution, best possible 1302.0042 (101.56 seconds)
Cbc0010I After 782 nodes, 8 on tree, 1417.9971 best solution, best possible 1302.0042 (102.48 seconds)
Cbc0010I After 791 nodes, 5 on tree, 1417.9971 best solution, best possible 1302.0042 (103.19 seconds)
Cbc0010I After 796 nodes, 8 on tree, 1417.9971 best solution, best possible 1302.0042 (104.02 seconds)
Cbc0010I After 807 nodes, 8 on tree, 1417.9971 best solution, best possible 1302.0042 (104.79 seconds)
Cbc0010I After 820 nodes, 6 on tree, 1417.9971 best solution, best possible 1302.0042 (105.67 seconds)
Cbc0010I After 825 nodes, 7 on tree, 1417.9971 best solution, best possible 1302.0042 (106.40 seconds)
Cbc0010I After 833 nodes, 3 on tree, 1417.9971 best solution, best possible 1302.0042 (107.13 seconds)
Cbc0010I After 844 nodes, 2 on tree, 1417.9971 best solution, best possible 1302.0042 (107.93 seconds)
Cbc0010I After 848 nodes, 6 on tree, 1417.9971 best solution, best possible 1302.0042 (108.67 seconds)
Cbc0010I After 858 nodes, 6 on tree, 1417.9971 best solution, best possible 1302.0042 (109.48 seconds)
Cbc0010I After 867 nodes, 3 on tree, 1417.9971 best solution, best possible 1302.0042 (110.35 seconds)
Cbc0010I After 872 nodes, 2 on tree, 1417.9971 best solution, best possible 1307.3352 (111.22 seconds)
Cbc0010I After 876 nodes, 6 on tree, 1417.9971 best solution, best possible 1307.3352 (112.04 seconds)
Cbc0010I After 883 nodes, 10 on tree, 1417.9971 best solution, best possible 1307.3352 (112.86 seconds)
Cbc0010I After 889 nodes, 13 on tree, 1417.9971 best solution, best possible 1307.3352 (113.63 seconds)
Cbc0010I After 897 nodes, 17 on tree, 1417.9971 best solution, best possible 1307.3352 (114.37 seconds)
Cbc0010I After 906 nodes, 22 on tree, 1417.9971 best solution, best possible 1307.3352 (115.14 seconds)
Cbc0010I After 917 nodes, 23 on tree, 1417.9971 best solution, best possible 1307.3352 (115.87 seconds)
Cbc0010I After 929 nodes, 21 on tree, 1417.9971 best solution, best possible 1307.3352 (116.75 seconds)
Cbc0010I After 935 nodes, 19 on tree, 1417.9971 best solution, best possible 1307.3352 (117.47 seconds)
Cbc0010I After 939 nodes, 22 on tree, 1417.9971 best solution, best possible 1307.3352 (118.22 seconds)
Cbc0010I After 943 nodes, 23 on tree, 1417.9971 best solution, best possible 1307.3352 (118.99 seconds)
Cbc0010I After 947 nodes, 26 on tree, 1417.9971 best solution, best possible 1307.3352 (119.71 seconds)
Cbc0010I After 955 nodes, 23 on tree, 1417.9971 best solution, best possible 1307.3352 (120.47 seconds)
Cbc0010I After 960 nodes, 24 on tree, 1417.9971 best solution, best possible 1307.3352 (121.21 seconds)
Cbc0010I After 965 nodes, 27 on tree, 1417.9971 best solution, best possible 1307.3352 (121.97 seconds)
Cbc0010I After 970 nodes, 30 on tree, 1417.9971 best solution, best possible 1307.3352 (122.71 seconds)
Cbc0010I After 975 nodes, 32 on tree, 1417.9971 best solution, best possible 1307.3352 (123.50 seconds)
Cbc0010I After 981 nodes, 33 on tree, 1417.9971 best solution, best possible 1307.3352 (124.26 seconds)
Cbc0010I After 985 nodes, 35 on tree, 1417.9971 best solution, best possible 1307.3352 (125.16 seconds)
Cbc0010I After 992 nodes, 37 on tree, 1417.9971 best solution, best possible 1307.3352 (125.99 seconds)
Cbc0010I After 997 nodes, 37 on tree, 1417.9971 best solution, best possible 1307.3352 (126.85 seconds)
Cbc0010I After 1001 nodes, 39 on tree, 1417.9971 best solution, best possible 1307.3352 (127.56 seconds)
Cbc0010I After 1007 nodes, 45 on tree, 1417.9971 best solution, best possible 1307.3352 (128.32 seconds)
Cbc0010I After 1016 nodes, 46 on tree, 1417.9971 best solution, best possible 1307.3352 (129.15 seconds)
Cbc0010I After 1026 nodes, 42 on tree, 1417.9971 best solution, best possible 1307.3352 (129.89 seconds)
Cbc0010I After 1030 nodes, 46 on tree, 1417.9971 best solution, best possible 1307.3352 (130.64 seconds)
Cbc0010I After 1039 nodes, 43 on tree, 1417.9971 best solution, best possible 1307.3352 (131.46 seconds)
Cbc0010I After 1050 nodes, 40 on tree, 1417.9971 best solution, best possible 1307.3352 (132.28 seconds)
Cbc0010I After 1057 nodes, 47 on tree, 1417.9971 best solution, best possible 1307.3352 (133.09 seconds)
Cbc0010I After 1064 nodes, 48 on tree, 1417.9971 best solution, best possible 1307.3352 (133.95 seconds)
Cbc0010I After 1075 nodes, 45 on tree, 1417.9971 best solution, best possible 1307.3352 (134.78 seconds)
Cbc0010I After 1085 nodes, 42 on tree, 1417.9971 best solution, best possible 1307.3352 (135.51 seconds)
Cbc0010I After 1091 nodes, 44 on tree, 1417.9971 best solution, best possible 1307.3352 (136.28 seconds)
Cbc0010I After 1099 nodes, 41 on tree, 1417.9971 best solution, best possible 1307.3352 (136.99 seconds)
Cbc0010I After 1110 nodes, 37 on tree, 1417.9971 best solution, best possible 1307.3352 (137.79 seconds)
Cbc0010I After 1120 nodes, 35 on tree, 1417.9971 best solution, best possible 1307.3352 (138.66 seconds)
Cbc0010I After 1127 nodes, 36 on tree, 1417.9971 best solution, best possible 1307.3352 (139.43 seconds)
Cbc0010I After 1134 nodes, 34 on tree, 1417.9971 best solution, best possible 1307.3352 (140.20 seconds)
Cbc0010I After 1143 nodes, 33 on tree, 1417.9971 best solution, best possible 1307.3352 (140.90 seconds)
Cbc0010I After 1151 nodes, 32 on tree, 1417.9971 best solution, best possible 1307.3352 (141.62 seconds)
Cbc0010I After 1158 nodes, 31 on tree, 1417.9971 best solution, best possible 1307.3352 (142.32 seconds)
Cbc0010I After 1167 nodes, 29 on tree, 1417.9971 best solution, best possible 1307.3352 (143.18 seconds)
Cbc0010I After 1177 nodes, 27 on tree, 1417.9971 best solution, best possible 1307.3352 (144.24 seconds)
Cbc0010I After 1184 nodes, 27 on tree, 1417.9971 best solution, best possible 1307.3352 (145.00 seconds)
Cbc0010I After 1191 nodes, 26 on tree, 1417.9971 best solution, best possible 1307.3352 (145.82 seconds)
Cbc0010I After 1199 nodes, 27 on tree, 1417.9971 best solution, best possible 1307.3352 (146.70 seconds)
Cbc0010I After 1206 nodes, 30 on tree, 1417.9971 best solution, best possible 1307.3352 (147.53 seconds)
Cbc0010I After 1214 nodes, 28 on tree, 1417.9971 best solution, best possible 1307.3352 (148.39 seconds)
Cbc0010I After 1223 nodes, 26 on tree, 1417.9971 best solution, best possible 1307.3352 (149.09 seconds)
Cbc0010I After 1232 nodes, 21 on tree, 1417.9971 best solution, best possible 1307.3352 (149.82 seconds)
Cbc0010I After 1242 nodes, 19 on tree, 1417.9971 best solution, best possible 1307.3352 (150.64 seconds)
Cbc0010I After 1254 nodes, 16 on tree, 1417.9971 best solution, best possible 1307.3352 (151.37 seconds)
Cbc0010I After 1262 nodes, 21 on tree, 1417.9971 best solution, best possible 1307.3352 (152.08 seconds)
Cbc0010I After 1267 nodes, 22 on tree, 1417.9971 best solution, best possible 1307.3352 (152.82 seconds)
Cbc0010I After 1275 nodes, 22 on tree, 1417.9971 best solution, best possible 1307.3352 (153.64 seconds)
Cbc0010I After 1285 nodes, 20 on tree, 1417.9971 best solution, best possible 1307.3352 (154.38 seconds)
Cbc0010I After 1295 nodes, 17 on tree, 1417.9971 best solution, best possible 1307.3352 (155.09 seconds)
Cbc0010I After 1303 nodes, 16 on tree, 1417.9971 best solution, best possible 1307.3352 (155.92 seconds)
Cbc0010I After 1311 nodes, 15 on tree, 1417.9971 best solution, best possible 1307.3352 (156.63 seconds)
Cbc0010I After 1315 nodes, 19 on tree, 1417.9971 best solution, best possible 1307.3352 (157.41 seconds)
Cbc0010I After 1324 nodes, 18 on tree, 1417.9971 best solution, best possible 1307.3352 (158.24 seconds)
Cbc0010I After 1334 nodes, 16 on tree, 1417.9971 best solution, best possible 1307.3352 (159.07 seconds)
Cbc0010I After 1342 nodes, 13 on tree, 1417.9971 best solution, best possible 1307.3352 (159.89 seconds)
Cbc0010I After 1346 nodes, 17 on tree, 1417.9971 best solution, best possible 1307.3352 (160.73 seconds)
Cbc0010I After 1353 nodes, 18 on tree, 1417.9971 best solution, best possible 1307.3352 (161.53 seconds)
Cbc0010I After 1361 nodes, 17 on tree, 1417.9971 best solution, best possible 1307.3352 (162.25 seconds)
Cbc0010I After 1369 nodes, 14 on tree, 1417.9971 best solution, best possible 1307.3352 (163.06 seconds)
Cbc0010I After 1377 nodes, 13 on tree, 1417.9971 best solution, best possible 1307.3352 (163.87 seconds)
Cbc0010I After 1384 nodes, 16 on tree, 1417.9971 best solution, best possible 1307.3352 (164.64 seconds)
Cbc0010I After 1391 nodes, 14 on tree, 1417.9971 best solution, best possible 1307.3352 (165.40 seconds)
Cbc0010I After 1399 nodes, 14 on tree, 1417.9971 best solution, best possible 1307.3352 (166.14 seconds)
Cbc0010I After 1407 nodes, 14 on tree, 1417.9971 best solution, best possible 1307.3352 (166.87 seconds)
Cbc0010I After 1417 nodes, 11 on tree, 1417.9971 best solution, best possible 1307.3352 (167.62 seconds)
Cbc0010I After 1425 nodes, 10 on tree, 1417.9971 best solution, best possible 1307.3352 (168.39 seconds)
Cbc0010I After 1430 nodes, 9 on tree, 1417.9971 best solution, best possible 1307.3352 (169.11 seconds)
Cbc0010I After 1436 nodes, 10 on tree, 1417.9971 best solution, best possible 1307.3352 (169.90 seconds)
Cbc0010I After 1445 nodes, 8 on tree, 1417.9971 best solution, best possible 1307.3352 (170.79 seconds)
Cbc0010I After 1451 nodes, 8 on tree, 1417.9971 best solution, best possible 1307.3352 (171.54 seconds)
Cbc0010I After 1458 nodes, 10 on tree, 1417.9971 best solution, best possible 1307.3352 (172.34 seconds)
Cbc0010I After 1466 nodes, 14 on tree, 1417.9971 best solution, best possible 1307.3352 (173.15 seconds)
Cbc0010I After 1475 nodes, 10 on tree, 1417.9971 best solution, best possible 1307.3352 (173.86 seconds)
Cbc0010I After 1485 nodes, 7 on tree, 1417.9971 best solution, best possible 1307.3352 (174.60 seconds)
Cbc0010I After 1489 nodes, 5 on tree, 1417.9971 best solution, best possible 1307.3352 (175.41 seconds)
Cbc0010I After 1496 nodes, 8 on tree, 1417.9971 best solution, best possible 1307.3352 (176.23 seconds)
Cbc0010I After 1503 nodes, 15 on tree, 1417.9971 best solution, best possible 1307.3352 (177.01 seconds)
Cbc0010I After 1511 nodes, 13 on tree, 1417.9971 best solution, best possible 1307.3352 (177.90 seconds)
Cbc0010I After 1515 nodes, 13 on tree, 1417.9971 best solution, best possible 1307.3352 (178.78 seconds)
Cbc0010I After 1522 nodes, 12 on tree, 1417.9971 best solution, best possible 1307.3352 (179.54 seconds)
Cbc0010I After 1531 nodes, 10 on tree, 1417.9971 best solution, best possible 1307.3352 (180.36 seconds)
Cbc0010I After 1534 nodes, 12 on tree, 1417.9971 best solution, best possible 1307.3352 (181.09 seconds)
Cbc0010I After 1546 nodes, 13 on tree, 1417.9971 best solution, best possible 1307.3352 (181.80 seconds)
Cbc0010I After 1555 nodes, 11 on tree, 1417.9971 best solution, best possible 1307.3352 (182.54 seconds)
Cbc0010I After 1563 nodes, 13 on tree, 1417.9971 best solution, best possible 1307.3352 (183.27 seconds)
Cbc0010I After 1574 nodes, 11 on tree, 1417.9971 best solution, best possible 1307.3352 (183.98 seconds)
Cbc0010I After 1583 nodes, 17 on tree, 1417.9971 best solution, best possible 1307.3352 (184.87 seconds)
Cbc0004I Integer solution of 1415.4171 found after 144821 iterations and 1585 nodes (185.22 seconds)
Cbc0010I After 1588 nodes, 18 on tree, 1415.4171 best solution, best possible 1307.3352 (185.75 seconds)
Cbc0010I After 1592 nodes, 19 on tree, 1415.4171 best solution, best possible 1307.3352 (186.51 seconds)
Cbc0004I Integer solution of 1405.6139 found after 145810 iterations and 1596 nodes (187.16 seconds)
Cbc0010I After 1599 nodes, 13 on tree, 1405.6139 best solution, best possible 1307.3352 (187.30 seconds)
Cbc0010I After 1605 nodes, 15 on tree, 1405.6139 best solution, best possible 1307.3352 (188.03 seconds)
Cbc0010I After 1610 nodes, 18 on tree, 1405.6139 best solution, best possible 1307.3352 (188.85 seconds)
Cbc0010I After 1618 nodes, 20 on tree, 1405.6139 best solution, best possible 1307.3352 (189.62 seconds)
Cbc0010I After 1626 nodes, 18 on tree, 1405.6139 best solution, best possible 1307.3352 (190.35 seconds)
Cbc0010I After 1634 nodes, 20 on tree, 1405.6139 best solution, best possible 1307.3352 (191.05 seconds)
Cbc0004I Integer solution of 1404.7291 found after 148861 iterations and 1635 nodes (191.37 seconds)
Cbc0004I Integer solution of 1404.2765 found after 148990 iterations and 1636 nodes (191.62 seconds)
Cbc0010I After 1639 nodes, 15 on tree, 1404.2765 best solution, best possible 1307.3352 (192.05 seconds)
Cbc0010I After 1649 nodes, 15 on tree, 1404.2765 best solution, best possible 1307.3352 (192.81 seconds)
Cbc0010I After 1659 nodes, 13 on tree, 1404.2765 best solution, best possible 1307.3352 (193.60 seconds)
Cbc0010I After 1677 nodes, 4 on tree, 1404.2765 best solution, best possible 1307.3352 (194.30 seconds)
Cbc0010I After 1683 nodes, 7 on tree, 1404.2765 best solution, best possible 1307.3352 (195.04 seconds)
Cbc0010I After 1693 nodes, 6 on tree, 1404.2765 best solution, best possible 1307.3352 (195.85 seconds)
Cbc0010I After 1700 nodes, 8 on tree, 1404.2765 best solution, best possible 1307.3352 (196.57 seconds)
Cbc0010I After 1713 nodes, 7 on tree, 1404.2765 best solution, best possible 1307.3352 (197.34 seconds)
Cbc0010I After 1727 nodes, 5 on tree, 1404.2765 best solution, best possible 1307.3352 (198.20 seconds)
Cbc0010I After 1732 nodes, 9 on tree, 1404.2765 best solution, best possible 1307.3352 (198.91 seconds)
Cbc0010I After 1746 nodes, 6 on tree, 1404.2765 best solution, best possible 1307.3352 (199.63 seconds)
Cbc0010I After 1759 nodes, 2 on tree, 1404.2765 best solution, best possible 1307.3352 (200.45 seconds)
Cbc0010I After 1766 nodes, 7 on tree, 1404.2765 best solution, best possible 1307.3352 (201.15 seconds)
Cbc0010I After 1776 nodes, 9 on tree, 1404.2765 best solution, best possible 1307.3352 (201.93 seconds)
Cbc0010I After 1785 nodes, 10 on tree, 1404.2765 best solution, best possible 1307.3352 (202.73 seconds)
Cbc0010I After 1791 nodes, 10 on tree, 1404.2765 best solution, best possible 1307.3352 (203.46 seconds)
Cbc0010I After 1809 nodes, 4 on tree, 1404.2765 bModell wird erstellt...
Suche Startlösung...
None
Suche optimale Lösung...
OptimizationStatus.OPTIMAL
C:\Users\Philip\Documents\programmieren\python\bwinf41-2\weniger-krumme-touren\beispiele\random\70\702.txt
Lösung gefunden!
est solution, best possible 1307.3352 (204.37 seconds)
Cbc0010I After 1814 nodes, 6 on tree, 1404.2765 best solution, best possible 1307.3352 (205.10 seconds)
Cbc0010I After 1827 nodes, 6 on tree, 1404.2765 best solution, best possible 1307.3352 (205.81 seconds)
Cbc0010I After 1837 nodes, 2 on tree, 1404.2765 best solution, best possible 1307.3352 (206.51 seconds)
Cbc0010I After 1845 nodes, 2 on tree, 1404.2765 best solution, best possible 1328.2192 (207.23 seconds)
Cbc0010I After 1852 nodes, 7 on tree, 1404.2765 best solution, best possible 1328.2192 (208.02 seconds)
Cbc0010I After 1859 nodes, 9 on tree, 1404.2765 best solution, best possible 1328.2192 (208.75 seconds)
Cbc0010I After 1866 nodes, 11 on tree, 1404.2765 best solution, best possible 1328.2192 (209.59 seconds)
Cbc0010I After 1871 nodes, 12 on tree, 1404.2765 best solution, best possible 1328.2192 (210.30 seconds)
Cbc0010I After 1889 nodes, 6 on tree, 1404.2765 best solution, best possible 1328.2192 (211.18 seconds)
Cbc0010I After 1896 nodes, 6 on tree, 1404.2765 best solution, best possible 1328.2192 (211.95 seconds)
Cbc0010I After 1901 nodes, 9 on tree, 1404.2765 best solution, best possible 1328.2192 (212.69 seconds)
Cbc0010I After 1914 nodes, 6 on tree, 1404.2765 best solution, best possible 1328.2192 (213.40 seconds)
Cbc0010I After 1927 nodes, 4 on tree, 1404.2765 best solution, best possible 1328.2192 (214.29 seconds)
Cbc0010I After 1938 nodes, 3 on tree, 1404.2765 best solution, best possible 1328.2192 (215.04 seconds)
Cbc0010I After 1945 nodes, 5 on tree, 1404.2765 best solution, best possible 1328.2192 (215.77 seconds)
Cbc0010I After 1950 nodes, 7 on tree, 1404.2765 best solution, best possible 1328.2192 (216.54 seconds)
Cbc0010I After 1956 nodes, 10 on tree, 1404.2765 best solution, best possible 1328.2192 (217.46 seconds)
Cbc0010I After 1965 nodes, 10 on tree, 1404.2765 best solution, best possible 1328.2192 (218.20 seconds)
Cbc0010I After 1980 nodes, 5 on tree, 1404.2765 best solution, best possible 1328.2192 (219.01 seconds)
Cbc0010I After 1988 nodes, 5 on tree, 1404.2765 best solution, best possible 1328.2192 (219.77 seconds)
Cbc0010I After 1996 nodes, 7 on tree, 1404.2765 best solution, best possible 1328.2192 (220.56 seconds)
Cbc0010I After 2011 nodes, 2 on tree, 1404.2765 best solution, best possible 1328.2192 (221.30 seconds)
Cbc0010I After 2016 nodes, 5 on tree, 1404.2765 best solution, best possible 1328.2192 (222.01 seconds)
Cbc0010I After 2030 nodes, 3 on tree, 1404.2765 best solution, best possible 1348.5142 (222.73 seconds)
Cbc0010I After 2035 nodes, 6 on tree, 1404.2765 best solution, best possible 1348.5142 (223.52 seconds)
Cbc0010I After 2042 nodes, 8 on tree, 1404.2765 best solution, best possible 1348.5142 (224.29 seconds)
Cbc0010I After 2060 nodes, 4 on tree, 1404.2765 best solution, best possible 1348.5142 (225.12 seconds)
Cbc0010I After 2068 nodes, 3 on tree, 1404.2765 best solution, best possible 1348.5142 (225.97 seconds)
Cbc0010I After 2080 nodes, 3 on tree, 1404.2765 best solution, best possible 1375.0739 (226.80 seconds)
Cbc0001I Search completed - best objective 1404.276459779582, took 178429 iterations and 2088 nodes (227.19 seconds)
Cbc0032I Strong branching done 10678 times (180513 iterations), fathomed 306 nodes and fixed 1398 variables
Cbc0035I Maximum depth 34, 273032 variables fixed on reduced cost
Total time (CPU seconds):       227.37   (Wallclock seconds):       227.37

